unsat
(:max-memory         18.14
 :memory             18.05
 :nlsat-conflicts    3
 :nlsat-propagations 10
 :nlsat-stages       3
 :num-allocs         35579
 :rlimit-count       10579
 :time               0.01
 :total-time         0.02)
